CMPL model generation - running

CMPL version: 1.11.0
Authors: Thomas Schleiff, Mike Steglich
Distributed under the GPLv3 

create model instance ...
write model instance ...
CMPL model generation - finished

Solver - running


Welcome to IBM(R) ILOG(R) CPLEX(R) Interactive Optimizer 12.7.1.0
  with Simplex, Mixed Integer & Barrier Optimizers
5725-A06 5725-A29 5724-Y48 5724-Y49 5724-Y54 5724-Y55 5655-Y21
Copyright IBM Corp. 1988, 2017.  All Rights Reserved.

Type 'help' for a list of available commands.
Type 'help' followed by a command name for more
information on commands.

CPLEX> Specified objective sense: MINIMIZE
Selected objective  name:  line[1]
Selected RHS        name:  RHS
Selected bound      name:  BOUND
Problem '/tmp/cmpl.T23836.mps' read.
Read time = 0.12 sec. (10.12 ticks)
CPLEX> CPXPARAM_Read_APIEncoding                        "UTF-8"
Tried aggregator 3 times.
MIP Presolve eliminated 24054 rows and 37675 columns.
MIP Presolve modified 425 coefficients.
Aggregator did 725 substitutions.
Reduced MIP has 3143 rows, 4055 columns, and 12005 nonzeros.
Reduced MIP has 3845 binaries, 0 generals, 0 SOSs, and 0 indicators.
Presolve time = 0.10 sec. (50.10 ticks)
Found incumbent of value 535.578553 after 0.17 sec. (73.74 ticks)
Probing fixed 8 vars, tightened 0 bounds.
Probing time = 0.02 sec. (5.22 ticks)
Tried aggregator 1 time.
MIP Presolve eliminated 0 rows and 8 columns.
MIP Presolve modified 35 coefficients.
Reduced MIP has 3143 rows, 4047 columns, and 11989 nonzeros.
Reduced MIP has 4047 binaries, 0 generals, 0 SOSs, and 0 indicators.
Presolve time = 0.02 sec. (10.10 ticks)
Probing time = 0.02 sec. (2.84 ticks)
Clique table members: 7294.
MIP emphasis: balance optimality and feasibility.
MIP search method: dynamic search.
Parallel mode: none, using 1 thread.
Root relaxation solution time = 0.01 sec. (5.66 ticks)

        Nodes                                         Cuts/
   Node  Left     Objective  IInf  Best Integer    Best Bound    ItCnt     Gap

*     0+    0                          535.5786      -32.1060           105.99%
      0     0      113.2538    14      535.5786      113.2538      122   78.85%
*     0+    0                          129.2168      113.2538            12.35%
*     0+    0                          113.5738      113.2538             0.28%
      0     0      113.5133     1      113.5738      Cuts: 26      134    0.05%
*     0+    0                          113.5146      113.5133             0.00%
      0     0        cutoff            113.5146      113.5133      134    0.00%
Elapsed time = 0.30 sec. (127.01 ticks, tree = 0.01 MB, solutions = 4)

GUB cover cuts applied:  1
Clique cuts applied:  2
Cover cuts applied:  15
Gomory fractional cuts applied:  8

Root node processing (before b&c):
  Real time             =    0.30 sec. (129.12 ticks)
Sequential b&c:
  Real time             =    0.00 sec. (0.00 ticks)
                          ------------
Total (root+branch&cut) =    0.30 sec. (129.12 ticks)

Solution pool: 4 solutions saved.

MIP - Integer optimal solution:  Objective =  1.1351463200e+02
Solution time =    0.30 sec.  Iterations = 134  Nodes = 0
Deterministic time = 129.24 ticks  (427.77 ticks/sec)

CPLEX> Incumbent solution written to file '/tmp/cmpl.T23836.gsol'.
CPLEX> 
CMPL: Time used for model generation: 1 seconds
CMPL: Time used for solving the model: 2 seconds


Solution written to ASCII file: results/output_generated_conf_0.3/2016-05-02-5/fair-nonlinear.sol

Solver - finished
